c clasp version 2.1.4
c Reading from ...arks/22_Nodes/PBencd_EuclideanCost.opb
c Solving...
o 801
o 780
o 751
o 737
o 725
o 688
o 677
o 676
o 669
o 658
o 650
o 646
o 643
o 637
o 633
o 632
o 626
o 620
o 613
o 609
o 595
o 576
o 565
o 561
o 560
o 553
o 538
o 526
o 509
o 500
o 492
o 490
o 486
o 483
o 482
o 475
o 471
o 467
o 466
o 465
o 462
o 460
o 454
o 448
o 439
o 438
o 436
o 435
o 432
o 429
o 426
o 423
o 419
o 418
o 413
o 410
o 406
o 401
o 399
o 398
o 387
o 377
o 376
o 367
o 360
o 357
o 351
o 347
o 342
o 341
o 337
o 334
o 332
o 331
o 330
o 323
o 321
o 318
o 316
